************************************************************************
file with basedata            : md377_.bas
initial value random generator: 1350691905
************************************************************************
projects                      :  1
jobs (incl. supersource/sink ):  22
horizon                       :  158
RESOURCES
  - renewable                 :  2   R
  - nonrenewable              :  2   N
  - doubly constrained        :  0   D
************************************************************************
PROJECT INFORMATION:
pronr.  #jobs rel.date duedate tardcost  MPM-Time
    1     20      0       25        1       25
************************************************************************
PRECEDENCE RELATIONS:
jobnr.    #modes  #successors   successors
   1        1          3           2   3   4
   2        3          3           8   9  12
   3        3          3           5   7  11
   4        3          3           7  11  20
   5        3          3           6   8  19
   6        3          2          15  17
   7        3          2          10  17
   8        3          2          15  20
   9        3          3          10  11  15
  10        3          2          14  16
  11        3          1          17
  12        3          1          13
  13        3          3          19  20  21
  14        3          1          21
  15        3          1          18
  16        3          2          18  19
  17        3          1          18
  18        3          1          21
  19        3          1          22
  20        3          1          22
  21        3          1          22
  22        1          0        
************************************************************************
REQUESTS/DURATIONS:
jobnr. mode duration  R 1  R 2  N 1  N 2
------------------------------------------------------------------------
  1      1     0       0    0    0    0
  2      1     3      10    0    1    4
         2     5       0    4    1    3
         3     7       0    2    1    2
  3      1     1       0    8    2   10
         2     4       9    0    2    9
         3     9       7    0    1    7
  4      1     2       0    7    5    2
         2     3       4    0    3    2
         3     8       0    7    2    2
  5      1     2       5    0    4    7
         2     2       0    5    8    6
         3     2       2    0    7    5
  6      1     3       0    6    9    7
         2     4       0    4    7    7
         3     6       0    3    5    4
  7      1     8       0    3    8    2
         2     8       5    0    8    2
         3    10       1    0    6    2
  8      1     3       4    0    9    9
         2     5       0    7    7    9
         3    10       0    6    6    8
  9      1     2       9    0    5    7
         2     3       0    4    5    7
         3     5       0    4    4    6
 10      1     1      10    0    7    3
         2     2      10    0    5    2
         3     9       0    7    5    2
 11      1     8       6    0    6    9
         2     9       0    8    6    9
         3     9       4    0    4    7
 12      1     6       0    8    8    4
         2     9       0    7    7    2
         3     9       5    0    8    3
 13      1     8       1    0    4    9
         2     8       0   10    5    9
         3     9       0   10    3    9
 14      1     8       5    0    7    8
         2     8       0    7    6    9
         3     9       0    7    5    7
 15      1     7       6    0    8    5
         2     9       0    2    6    5
         3    10       2    0    6    4
 16      1     1       0    9    8    9
         2     7       5    0    6    6
         3     9       0    3    1    6
 17      1     3      10    0    7   10
         2     7       0   10    6    6
         3     9       0    9    5    1
 18      1     6       8    0    9    8
         2     7       0    8    8    7
         3     8       0    3    8    4
 19      1     1       2    0    8    6
         2     4       2    0    6    6
         3     5       0    9    3    5
 20      1     3       7    0    5    9
         2     5       6    0    5    6
         3    10       0    3    3    4
 21      1     3       7    0    5    9
         2     4       7    0    4    9
         3     5       7    0    3    9
 22      1     0       0    0    0    0
************************************************************************
RESOURCEAVAILABILITIES:
  R 1  R 2  N 1  N 2
   12   10  130  138
************************************************************************
MAXIMAL LAGS:
from  to  type  delay
    1   12   ES      0
    1    2   ES      0
    2   12   ES      0
    1    3   ES      0
    3   12   ES      0
    1    4   ES      0
    4   12   ES      0
    1    5   ES      0
    5   12   ES      0
    1    6   ES      0
    6   12   ES      0
    1    7   ES      0
    7   12   ES      0
    1    8   ES      0
    8   12   ES      0
    1    9   ES      0
    9   12   ES      0
    1   10   ES      0
   10   12   ES      0
    1   11   ES      0
   11   12   ES      0
    1   12   ES      0
    2    8   SS     -3
    2    8   SE      5
    2    8   ES      2
    2    8   EE      4
    2    9   SS     -3
    2    9   SE     -9
    2    9   ES     -5
    2    9   EE      5
    3    5   SS      9
    3    5   SE     -5
    3    5   ES     -9
    3    5   EE     -7
    3    7   SS      2
    3    7   SE      1
    3    7   ES    -11
    3    7   EE      3
    3   11   SS      5
    3   11   SE     12
    3   11   ES     -5
    3   11   EE     -6
    4    7   SS     -1
    4    7   SE      7
    4    7   ES     -3
    4    7   EE      5
    4   11   SS     -7
    4   11   SE      8
    4   11   ES     -8
    4   11   EE     -4
    4   20   SS     -1
    4   20   SE     -8
    4   20   ES     -3
    4   20   EE     12
    5    6   SS      5
    5    6   SE      5
    5    6   ES     -9
    5    6   EE      0
    5    8   SS    -12
    5    8   SE      9
    5    8   ES     -6
    5    8   EE     -1
    5   19   SS     -5
    5   19   SE     -3
    5   19   ES     -9
    5   19   EE      3
    6   15   SS      1
    6   15   SE     10
    6   15   ES     -1
    6   15   EE     -3
    6   17   SS      1
    6   17   SE     -9
    6   17   ES     -4
    6   17   EE     -9
    7   10   SS     -9
    7   10   SE      8
    7   10   ES     12
    7   10   EE      6
    7   17   SS      8
    7   17   SE     -9
    7   17   ES    -11
    7   17   EE      8
    8   15   SS     -9
    8   15   SE     -3
    8   15   ES      9
    8   15   EE     12
    8   20   SS      2
    8   20   SE     -5
    8   20   ES      6
    8   20   EE      8
    9   10   SS      9
    9   10   SE      9
    9   10   ES    -10
    9   10   EE      8
    9   11   SS     -7
    9   11   SE      6
    9   11   ES      4
    9   11   EE      8
    9   15   SS     -5
    9   15   SE     -2
    9   15   ES      4
    9   15   EE     -4
   10   14   SS     -3
   10   14   SE      5
   10   14   ES     10
   10   14   EE    -12
   10   16   SS      9
   10   16   SE     -9
   10   16   ES     -8
   10   16   EE      2
   11   17   SS      3
   11   17   SE    -10
   11   17   ES     -8
   11   17   EE      2
   12   13   SS      3
   12   13   SE     10
   12   13   ES     -9
   12   13   EE     -2
   13   19   SS      0
   13   19   SE      8
   13   19   ES      4
   13   19   EE     -2
   13   20   SS     -6
   13   20   SE      7
   13   20   ES    -12
   13   20   EE      6
   13   21   SS     -9
   13   21   SE      9
   13   21   ES      2
   13   21   EE     -3
   14   21   SS     -4
   14   21   SE      3
   14   21   ES      6
   14   21   EE     -4
   15   18   SS    -12
   15   18   SE      4
   15   18   ES    -12
   15   18   EE      9
   16   18   SS     -6
   16   18   SE    -12
   16   18   ES     12
   16   18   EE      5
   16   19   SS      7
   16   19   SE     11
   16   19   ES     -7
   16   19   EE     -7
   17   18   SS      6
   17   18   SE      8
   17   18   ES    -11
   17   18   EE      0
   18   21   SS     -4
   18   21   SE     -9
   18   21   ES      7
   18   21   EE      7
   19   22   SS     12
   19   22   SE      0
   19   22   ES     -2
   19   22   EE      5
   20   22   SS     11
   20   22   SE     -3
   20   22   ES    -11
   20   22   EE     -8
   21   22   SS     10
   21   22   SE      6
   21   22   ES     -5
   21   22   EE      2
************************************************************************
